Route #1: 33 65 8 40 58 32
Route #2: 27 14 39 29 3 15 60 4 21 36 24
Route #3: 42 5 9 12 49
Route #4: 6 2 10 26 46 63 25
Route #5: 61 37 48 62 16 28 50
Route #6: 1 7 30 64 44 59 47
Route #7: 41 17 55 57 38 35 19 11
Route #8: 51 34 43 22 56 13 31 45
Route #9: 52 53 54 18 23 20
Cost 1319
Time 0.089023
